outputs/case_70.model.txt
explanation_doc_not_according_to_rules = False
internal_handling_established = True
report_or_explanation_false = False
violate_148_3_2 = False
not_report_to_authority_in_time = False
not_publicly_explain = False
violate_148_1_1_or_2 = False
violate_148_1_1 = False
internal_control_executed = True
not_provide_explanation_doc = False
violate_148_1_2 = False
internal_handling_executed = True
penalty = False
violate_148_2_2 = False
violate_148_2_1 = False
internal_control_established = True
violate_148_3_1 = False
explanation_doc_false = False